proyfinal/src/viki/013/andrea/andrea-localstore/experimentInOfficeAgust.take6/worker_6/b5802d98-a468-4405-9316-42b3fe4384c6.als.cnf.out
Reading from standard input... Use '--help' for help.
============================[ Problem Statistics ]=============================
|                                                                             |
|  Number of variables:         87638                                         |
|  Number of clauses:          161767                                         |
|  Parse time:                   0.03 s                                       |
|                                                                             |
============================[ Search Statistics ]==============================
| Conflicts |          ORIGINAL         |          LEARNT          | Progress |
|           |    Vars  Clauses Literals |    Limit  Clauses Lit/Cl |          |
===============================================================================
|       100 |   65195   115416   287873 |    42319      100     72 | 25.609 % |
|       250 |   65195   115416   287873 |    46551      250     51 | 25.609 % |
|       475 |   65195   115416   287873 |    51206      475     66 | 25.609 % |
|       812 |   58905    95947   239891 |    56326      762     59 | 32.786 % |
|      1318 |   58905    95947   239891 |    61959     1268     93 | 32.786 % |
|      2077 |   58528    95636   239126 |    68155     2023     75 | 33.216 % |
|      3216 |   58327    93930   235063 |    74971     3124     67 | 33.446 % |
|      4924 |   55721    84793   212140 |    82468     3265     59 | 36.419 % |
|      7486 |   55721    84793   212140 |    90714     5827     53 | 36.419 % |
|     11330 |   55184    82768   207386 |    99786     8005     57 | 37.032 % |
|     17096 |   54998    81880   205248 |   109765    13076     58 | 37.244 % |
===============================================================================
restarts              : 78
conflicts             : 21828          (9909 /sec)
decisions             : 84082          (0.00 % random) (38171 /sec)
propagations          : 25181889       (11431914 /sec)
conflict literals     : 1221716        (43.75 % deleted)
Memory used           : 37.23 MB
CPU time              : 2.20277 s

UNSATISFIABLE
